100
    1   204   204
    2   446   446
    3   448   448
    4   319   319
    5   154   154
    6   420   420
    7   363   363
    8   300   300
    9   428   428
   10   406   406
   11   294   294
   12   441   441
   13   301   301
   14    70    70
   15   108   108
   16    60    60
   17   269   269
   18   295   295
   19    70    70
   20    83    83
   21     8     8
   22    95    95
   23   183   183
   24   195   195
   25   196   196
   26   463   463
   27   116   116
   28   242   242
   29    61    61
   30   171   171
   31   301   301
   32   352   352
   33   481   481
   34   358   358
   35   396   396
   36   182   182
   37   497   497
   38   387   387
   39   458   458
   40   106   106
   41   237   237
   42   470   470
   43   344   344
   44   455   455
   45   156   156
   46    52    52
   47   331   331
   48   264   264
   49   465   465
   50   493   493
   51   132   132
   52   363   363
   53    70    70
   54    88    88
   55   136   136
   56   220   220
   57   310   310
   58   482   482
   59   171   171
   60   261   261
   61   398   398
   62   293   293
   63   300   300
   64   296   296
   65   240   240
   66   372   372
   67   117   117
   68   347   347
   69   244   244
   70   268   268
   71   109   109
   72   285   285
   73   448   448
   74   241   241
   75    53    53
   76   187   187
   77   160   160
   78   339   339
   79    59    59
   80   408   408
   81   451   451
   82   320   320
   83   402   402
   84   442   442
   85   230   230
   86    18    18
   87   134   134
   88   127   127
   89   231   231
   90    23    23
   91    47    47
   92   375   375
   93   358   358
   94    13    13
   95    26    26
   96     1     1
   97   159   159
   98    93    93
   99   168   168
  100   186   186
8398
